language Essence 1.3

letting C be function((0, 0) --> 0, (0, 1) --> 0, (1, 0) --> 1, (1, 1) --> 0)
letting J be function((0, 0) --> 0, (0, 1) --> 1, (1, 0) --> 1, (1, 1) --> 1)
letting M be function((0, 0) --> 0, (0, 1) --> 0, (1, 0) --> 0, (1, 1) --> 1)
letting R be function(0 --> 0, 1 --> 1)
